Welcome to the CBC MILP Solver 
Version: 2.10.3 
Build Date: Dec 15 2019 

command line - /work/zhang-x2/users/yc2632/miniconda3/envs/newpt2/lib/python3.9/site-packages/pulp/solverdir/cbc/linux/64/cbc /tmp/c5b8e9082637471db972f4c164d36d76-pulp.mps sec 900 timeMode elapsed branch printingOptions all solution /tmp/c5b8e9082637471db972f4c164d36d76-pulp.sol (default strategy 1)
At line 2 NAME          MODEL
At line 3 ROWS
At line 741766 COLUMNS
At line 6315881 RHS
At line 7057643 BOUNDS
At line 7212089 ENDATA
Problem MODEL has 741761 rows, 154445 columns and 5044665 elements
Coin0008I MODEL read with 0 errors
seconds was changed from 1e+100 to 900
Option for timeMode changed from cpu to elapsed
Continuous objective value is 1.001 - 1.29 seconds
Cgl0003I 0 fixed, 0 tightened bounds, 9 strengthened rows, 0 substitutions
Cgl0003I 0 fixed, 0 tightened bounds, 9 strengthened rows, 0 substitutions
Cgl0003I 0 fixed, 0 tightened bounds, 9 strengthened rows, 0 substitutions
Cgl0003I 0 fixed, 0 tightened bounds, 9 strengthened rows, 0 substitutions
Cgl0003I 0 fixed, 0 tightened bounds, 6 strengthened rows, 0 substitutions
Cgl0003I 0 fixed, 0 tightened bounds, 3 strengthened rows, 0 substitutions
Cgl0004I processed model has 646892 rows, 154442 columns (144859 integer (144857 of which binary)) and 4268953 elements
Cutoff increment increased from 1e-05 to 0.000999
Cbc0020I Exiting on maximum time
Cbc0005I Partial search - best objective 1e+50 (best possible 1.001), took 0 iterations and 0 nodes (858.17 seconds)
Cbc0035I Maximum depth 0, 0 variables fixed on reduced cost
Cuts at root node changed objective from 1.001 to 1.001
Probing was tried 0 times and created 0 cuts of which 0 were active after adding rounds of cuts (0.000 seconds)
Gomory was tried 0 times and created 0 cuts of which 0 were active after adding rounds of cuts (0.000 seconds)
Knapsack was tried 0 times and created 0 cuts of which 0 were active after adding rounds of cuts (0.000 seconds)
Clique was tried 0 times and created 0 cuts of which 0 were active after adding rounds of cuts (0.000 seconds)
MixedIntegerRounding2 was tried 0 times and created 0 cuts of which 0 were active after adding rounds of cuts (0.000 seconds)
FlowCover was tried 0 times and created 0 cuts of which 0 were active after adding rounds of cuts (0.000 seconds)
TwoMirCuts was tried 0 times and created 0 cuts of which 0 were active after adding rounds of cuts (0.000 seconds)
ZeroHalf was tried 0 times and created 0 cuts of which 0 were active after adding rounds of cuts (0.000 seconds)

Result - Stopped on time limit

No feasible solution found
Lower bound:                    1.001
Enumerated nodes:               0
Total iterations:               0
Time (CPU seconds):             848.14
Time (Wallclock seconds):       858.21

Option for printingOptions changed from normal to all
Total time (CPU seconds):       850.08   (Wallclock seconds):       860.38

Root classes: ['168']
Status: Not Solved
